c File: data_files/evolved_graphs/g0476.col
c
c Auto generated graph
c
p edge 100 716
e 1 10
e 1 21
e 1 25
e 1 29
e 1 30
e 1 31
e 1 33
e 1 36
e 1 37
e 1 44
e 1 57
e 1 66
e 1 73
e 1 85
e 1 86
e 1 87
e 1 89
e 1 90
e 1 91
e 1 93
e 1 96
e 1 97
e 1 100
e 2 12
e 2 17
e 2 29
e 2 31
e 2 32
e 2 35
e 2 44
e 2 51
e 2 52
e 2 55
e 2 63
e 2 77
e 2 79
e 2 84
e 2 86
e 2 87
e 2 89
e 2 91
e 2 93
e 3 18
e 3 25
e 3 26
e 3 27
e 3 30
e 3 32
e 3 33
e 3 37
e 3 39
e 3 40
e 3 44
e 3 48
e 3 49
e 3 64
e 3 70
e 3 74
e 3 79
e 3 86
e 3 89
e 3 91
e 3 92
e 3 93
e 3 94
e 3 98
e 3 100
e 4 25
e 4 28
e 4 30
e 4 37
e 4 38
e 4 41
e 4 42
e 4 44
e 4 53
e 4 55
e 4 62
e 4 66
e 4 67
e 4 70
e 4 71
e 4 79
e 4 85
e 4 86
e 4 88
e 4 89
e 4 90
e 4 91
e 4 93
e 5 30
e 5 37
e 5 44
e 5 51
e 5 54
e 5 69
e 5 73
e 5 81
e 5 88
e 5 89
e 5 95
e 5 99
e 6 25
e 6 26
e 6 27
e 6 28
e 6 30
e 6 31
e 6 32
e 6 34
e 6 35
e 6 36
e 6 37
e 6 38
e 6 39
e 6 42
e 6 47
e 6 50
e 6 58
e 6 62
e 6 64
e 6 72
e 6 77
e 6 85
e 6 86
e 6 87
e 6 89
e 6 91
e 6 92
e 6 95
e 6 97
e 6 98
e 7 21
e 7 29
e 7 31
e 7 32
e 7 35
e 7 36
e 7 38
e 7 45
e 7 55
e 7 70
e 7 76
e 7 80
e 7 85
e 7 88
e 7 91
e 7 92
e 7 93
e 7 94
e 7 95
e 8 30
e 8 31
e 8 35
e 8 36
e 8 37
e 8 38
e 8 39
e 8 51
e 8 62
e 8 71
e 8 72
e 8 73
e 8 75
e 8 76
e 8 80
e 8 81
e 8 82
e 8 86
e 8 88
e 8 90
e 8 98
e 9 20
e 9 30
e 9 32
e 9 35
e 9 37
e 9 38
e 9 72
e 9 73
e 9 76
e 9 78
e 9 80
e 9 81
e 9 82
e 9 87
e 9 88
e 9 93
e 10 12
e 10 30
e 10 32
e 10 35
e 10 37
e 10 38
e 10 39
e 10 52
e 10 69
e 10 73
e 10 76
e 10 77
e 10 79
e 10 80
e 10 91
e 10 96
e 10 97
e 10 98
e 11 16
e 11 22
e 11 25
e 11 31
e 11 32
e 11 33
e 11 34
e 11 35
e 11 36
e 11 37
e 11 38
e 11 39
e 11 59
e 11 71
e 11 72
e 11 73
e 11 82
e 11 86
e 11 87
e 11 89
e 11 92
e 11 94
e 12 14
e 12 29
e 12 30
e 12 33
e 12 35
e 12 36
e 12 37
e 12 38
e 12 39
e 12 54
e 12 56
e 12 69
e 12 72
e 12 76
e 12 86
e 12 90
e 12 92
e 12 96
e 13 15
e 13 24
e 13 30
e 13 33
e 13 35
e 13 36
e 13 37
e 13 38
e 13 39
e 13 43
e 13 48
e 13 59
e 13 68
e 13 72
e 13 82
e 13 84
e 13 90
e 13 92
e 13 93
e 13 96
e 13 99
e 14 29
e 14 30
e 14 32
e 14 35
e 14 36
e 14 38
e 14 42
e 14 48
e 14 70
e 14 74
e 14 77
e 14 82
e 14 87
e 14 88
e 14 94
e 14 97
e 14 100
e 15 22
e 15 23
e 15 30
e 15 31
e 15 34
e 15 35
e 15 36
e 15 37
e 15 38
e 15 39
e 15 68
e 15 69
e 15 73
e 15 85
e 15 91
e 15 93
e 16 19
e 16 24
e 16 33
e 16 34
e 16 35
e 16 36
e 16 37
e 16 38
e 16 39
e 16 40
e 16 45
e 16 68
e 16 78
e 16 83
e 16 84
e 16 89
e 16 90
e 17 29
e 17 31
e 17 32
e 17 36
e 17 37
e 17 38
e 17 39
e 17 54
e 17 58
e 17 70
e 17 71
e 17 74
e 17 75
e 17 81
e 17 85
e 17 89
e 17 97
e 17 100
e 18 31
e 18 34
e 18 35
e 18 39
e 18 41
e 18 70
e 18 72
e 18 76
e 18 80
e 18 82
e 18 86
e 18 89
e 18 94
e 18 95
e 19 26
e 19 35
e 19 36
e 19 37
e 19 39
e 19 44
e 19 48
e 19 72
e 19 75
e 19 85
e 19 86
e 19 90
e 19 93
e 19 96
e 19 97
e 20 26
e 20 35
e 20 37
e 20 38
e 20 39
e 20 73
e 20 76
e 20 92
e 20 93
e 20 95
e 20 99
e 21 29
e 21 30
e 21 31
e 21 35
e 21 36
e 21 37
e 21 38
e 21 39
e 21 74
e 21 81
e 21 85
e 21 86
e 21 87
e 21 88
e 21 89
e 21 93
e 21 94
e 21 95
e 21 96
e 22 30
e 22 34
e 22 36
e 22 37
e 22 38
e 22 39
e 22 66
e 22 74
e 22 75
e 22 77
e 22 80
e 22 81
e 22 84
e 22 87
e 22 88
e 22 89
e 22 94
e 22 100
e 23 29
e 23 35
e 23 36
e 23 37
e 23 38
e 23 39
e 23 42
e 23 46
e 23 52
e 23 59
e 23 86
e 23 89
e 23 94
e 24 30
e 24 33
e 24 35
e 24 36
e 24 38
e 24 39
e 24 45
e 24 58
e 24 71
e 24 76
e 24 77
e 24 79
e 24 81
e 24 86
e 24 88
e 24 90
e 24 95
e 24 98
e 25 26
e 25 34
e 25 35
e 25 36
e 25 37
e 25 39
e 25 40
e 25 48
e 25 68
e 25 71
e 25 72
e 25 76
e 25 78
e 25 79
e 25 83
e 25 95
e 25 96
e 25 98
e 26 36
e 26 37
e 26 38
e 26 39
e 26 76
e 26 77
e 26 81
e 26 84
e 26 93
e 26 98
e 27 31
e 27 32
e 27 33
e 27 35
e 27 36
e 27 37
e 27 38
e 27 39
e 27 69
e 27 70
e 27 80
e 27 91
e 27 94
e 27 98
e 28 34
e 28 35
e 28 36
e 28 37
e 28 38
e 28 39
e 28 54
e 28 68
e 28 69
e 28 71
e 28 76
e 28 83
e 28 84
e 28 87
e 28 89
e 28 94
e 28 96
e 28 99
e 28 100
e 29 31
e 29 35
e 29 36
e 29 38
e 29 57
e 29 72
e 29 77
e 29 82
e 29 84
e 29 86
e 29 89
e 29 95
e 29 96
e 30 35
e 30 36
e 30 37
e 30 38
e 30 39
e 30 51
e 30 53
e 30 57
e 30 91
e 30 98
e 30 100
e 31 34
e 31 35
e 31 36
e 31 37
e 31 38
e 31 39
e 31 52
e 31 63
e 31 77
e 31 80
e 31 85
e 31 90
e 31 94
e 31 95
e 32 36
e 32 38
e 32 40
e 32 43
e 32 82
e 32 86
e 32 87
e 32 92
e 32 95
e 32 98
e 33 35
e 33 36
e 33 37
e 33 38
e 33 39
e 34 35
e 34 36
e 34 37
e 34 99
e 35 37
e 36 37
e 39 99
e 41 80
e 41 83
e 41 99
e 42 76
e 43 82
e 44 45
e 44 55
e 44 64
e 44 79
e 44 80
e 45 49
e 45 54
e 45 82
e 45 88
e 46 57
e 46 87
e 47 54
e 47 68
e 47 73
e 48 62
e 48 66
e 48 75
e 49 56
e 49 59
e 49 68
e 49 70
e 50 65
e 51 53
e 51 83
e 52 53
e 52 58
e 52 76
e 53 64
e 53 73
e 54 62
e 54 66
e 54 71
e 54 75
e 55 62
e 55 67
e 55 99
e 56 60
e 56 64
e 56 66
e 56 73
e 56 82
e 56 92
e 57 77
e 58 63
e 58 67
e 59 73
e 59 75
e 59 77
e 59 85
e 60 75
e 60 84
e 60 100
e 61 67
e 61 76
e 62 67
e 62 83
e 63 79
e 63 80
e 64 66
e 64 74
e 64 85
e 65 71
e 65 74
e 66 72
e 66 73
e 66 78
e 67 71
e 67 77
e 67 86
e 68 70
e 68 76
e 68 81
e 68 86
e 68 88
e 68 96
e 68 97
e 68 98
e 68 99
e 69 80
e 69 82
e 69 83
e 69 88
e 69 90
e 70 82
e 70 83
e 70 85
e 70 87
e 70 93
e 70 94
e 70 99
e 71 79
e 71 84
e 71 89
e 71 91
e 71 94
e 71 95
e 71 99
e 72 79
e 72 81
e 72 84
e 72 85
e 72 99
e 73 75
e 73 78
e 73 81
e 73 96
e 73 97
e 74 79
e 74 82
e 74 83
e 74 90
e 74 93
e 75 76
e 75 80
e 75 85
e 75 87
e 75 88
e 75 93
e 75 95
e 75 96
e 76 83
e 76 92
e 77 89
e 78 80
e 78 91
e 79 80
e 79 85
e 79 90
e 79 93
e 79 95
e 80 82
e 81 92
e 83 85
e 83 86
e 83 89
e 83 97
e 84 88
e 84 96
e 85 87
e 85 91
e 85 96
e 88 91
e 90 100
e 94 95
e 94 99
e 96 97
e 97 98
